NAME: ulysses16.tsp
TYPE: TSP
COMMENT: Odyssey of Ulysses (Groetschel/Padberg)
DIMENSION: 16
EDGE_WEIGHT_TYPE: GEO
DISPLAY_DATA_TYPE: COORD_DISPLAY
NODE_COORD_SECTION
 1 38.24 20.42
 2 39.57 26.15
 3 40.56 25.32
 4 36.26 23.12
 5 33.48 10.54
 6 37.56 12.19
 7 38.42 13.11
 8 37.52 20.44
 9 41.23 9.10
 10 41.17 13.05
 11 36.08 -5.21
 12 38.47 15.13
 13 38.15 15.35
 14 37.51 15.17
 15 35.49 14.32
 16 39.36 19.56
 EOF

Best route saved ulysses16

Best seed: 1235
Best cost: 6859
Runtime: 2933.02 ms
Tour order: [0, 7, 3, 1, 2, 15, 9, 8, 10, 4, 14, 5, 6, 11, 12, 13]

cost       min/med/max: 6859 / 6895.0 / 6951
runtime ms min/med/max: 2933.03 / 2995.22 / 3083.45